language Essence 1.3

letting blksize_delta be
        function(1 --> 9, 2 --> 9, 3 --> 10, 4 --> 10, 5 --> 10, 6 --> 9, 7 --> 9, 8 --> 10, 9 --> 10, 10 --> 9,
                 11 --> 9, 12 --> 9, 13 --> 9, 14 --> 10, 15 --> 9, 16 --> 9, 17 --> 9, 18 --> 9, 19 --> 9, 20 --> 9,
                 21 --> 9, 22 --> 10, 23 --> 10, 24 --> 9, 25 --> 9, 26 --> 9, 27 --> 9, 28 --> 9, 29 --> 9, 30 --> 10)
letting maxcars be
        function(1 --> 10, 2 --> 10, 3 --> 9, 4 --> 10, 5 --> 9, 6 --> 9, 7 --> 9, 8 --> 9, 9 --> 10, 10 --> 9,
                 11 --> 9, 12 --> 10, 13 --> 9, 14 --> 9, 15 --> 9, 16 --> 9, 17 --> 9, 18 --> 9, 19 --> 9, 20 --> 10,
                 21 --> 10, 22 --> 9, 23 --> 9, 24 --> 9, 25 --> 9, 26 --> 10, 27 --> 9, 28 --> 9, 29 --> 9, 30 --> 9)
letting n_cars be 209
letting n_classes be 18
letting n_options be 30
letting quantity be
        function(1 --> 11, 2 --> 11, 3 --> 11, 4 --> 15, 5 --> 11, 6 --> 16, 7 --> 13, 8 --> 11, 9 --> 11, 10 --> 11,
                 11 --> 11, 12 --> 11, 13 --> 11, 14 --> 11, 15 --> 11, 16 --> 11, 17 --> 11, 18 --> 11)
letting usage be
        relation((1, 1), (1, 4), (1, 8), (1, 11), (1, 12), (1, 16), (1, 18), (1, 19), (2, 13), (2, 17), (2, 20),
                 (2, 21), (2, 23), (2, 27), (2, 29), (3, 3), (3, 4), (3, 9), (3, 10), (3, 13), (3, 15), (3, 21),
                 (3, 23), (3, 27), (4, 11), (4, 14), (4, 22), (4, 24), (4, 27), (4, 29), (4, 30), (5, 1), (5, 9),
                 (5, 10), (5, 16), (5, 18), (5, 23), (5, 27), (6, 3), (6, 19), (6, 23), (6, 29), (7, 1), (7, 8),
                 (7, 12), (7, 14), (7, 15), (7, 28), (7, 30), (8, 6), (8, 10), (8, 12), (8, 13), (8, 14), (8, 17),
                 (9, 9), (9, 13), (9, 21), (9, 22), (9, 28), (9, 29), (10, 2), (10, 6), (10, 10), (10, 12), (10, 19),
                 (10, 21), (10, 28), (11, 3), (11, 10), (11, 16), (11, 19), (11, 22), (11, 23), (11, 28), (12, 1),
                 (12, 3), (12, 5), (12, 6), (12, 7), (12, 9), (12, 11), (12, 13), (12, 17), (12, 18), (12, 24),
                 (12, 29), (13, 1), (13, 3), (13, 4), (13, 7), (13, 10), (13, 14), (13, 24), (13, 27), (14, 7),
                 (14, 10), (14, 11), (14, 15), (14, 22), (14, 23), (14, 25), (14, 27), (15, 3), (15, 12), (15, 15),
                 (15, 27), (16, 1), (16, 5), (16, 12), (16, 13), (16, 20), (16, 21), (16, 22), (16, 24), (17, 1),
                 (17, 3), (17, 8), (17, 10), (17, 17), (17, 26), (17, 27), (18, 1), (18, 2), (18, 3), (18, 7), (18, 9),
                 (18, 15), (18, 18), (18, 20), (18, 25), (18, 28), (18, 30))
$ Visualisation for usage
$  1  1
$  1  4
$  1  8
$  1 11
$  1 12
$  1 16
$  1 18
$  1 19
$  2 13
$  2 17
$  2 20
$  2 21
$  2 23
$  2 27
$  2 29
$  3  3
$  3  4
$  3  9
$  3 10
$  3 13
$  3 15
$  3 21
$  3 23
$  3 27
$  4 11
$  4 14
$  4 22
$  4 24
$  4 27
$  4 29
$  4 30
$  5  1
$  5  9
$  5 10
$  5 16
$  5 18
$  5 23
$  5 27
$  6  3
$  6 19
$  6 23
$  6 29
$  7  1
$  7  8
$  7 12
$  7 14
$  7 15
$  7 28
$  7 30
$  8  6
$  8 10
$  8 12
$  8 13
$  8 14
$  8 17
$  9  9
$  9 13
$  9 21
$  9 22
$  9 28
$  9 29
$ 10  2
$ 10  6
$ 10 10
$ 10 12
$ 10 19
$ 10 21
$ 10 28
$ 11  3
$ 11 10
$ 11 16
$ 11 19
$ 11 22
$ 11 23
$ 11 28
$ 12  1
$ 12  3
$ 12  5
$ 12  6
$ 12  7
$ 12  9
$ 12 11
$ 12 13
$ 12 17
$ 12 18
$ 12 24
$ 12 29
$ 13  1
$ 13  3
$ 13  4
$ 13  7
$ 13 10
$ 13 14
$ 13 24
$ 13 27
$ 14  7
$ 14 10
$ 14 11
$ 14 15
$ 14 22
$ 14 23
$ 14 25
$ 14 27
$ 15  3
$ 15 12
$ 15 15
$ 15 27
$ 16  1
$ 16  5
$ 16 12
$ 16 13
$ 16 20
$ 16 21
$ 16 22
$ 16 24
$ 17  1
$ 17  3
$ 17  8
$ 17 10
$ 17 17
$ 17 26
$ 17 27
$ 18  1
$ 18  2
$ 18  3
$ 18  7
$ 18  9
$ 18 15
$ 18 18
$ 18 20
$ 18 25
$ 18 28
$ 18 30

